p edge 20 48 10
v 2 5 14
v 2 8 11
v 1 12
v 1 16
v 2 15 20
v 1 17
v 3 4 18 19
v 4 1 2 3 13
v 3 6 7 9
v 1 10
e 1 2
e 1 4
e 2 4
e 2 8
e 2 12
e 2 14
e 2 20
e 3 4
e 3 6
e 3 15
e 3 16
e 3 17
e 4 5
e 4 10
e 4 15
e 4 18
e 4 20
e 5 9
e 5 13
e 5 17
e 6 7
e 6 8
e 6 15
e 6 16
e 6 19
e 7 13
e 7 15
e 7 16
e 7 17
e 7 19
e 8 9
e 8 13
e 8 18
e 8 20
e 9 11
e 9 16
e 9 20
e 10 12
e 10 13
e 10 15
e 10 18
e 13 16
e 13 17
e 13 19
e 15 17
e 16 18
e 17 19
e 17 20
